% Total number of solutions: 518
% Total number of fixpoints: 168315
%  Counter({4: 17382, 6: 14800, 8: 11486, 5: 11380, 3: 11270, 10: 9462, 7: 9014, 12: 7756, 9: 6572, 2: 6080, 14: 5452, 11: 5100, 16: 4848, 15: 3876, 13: 3506, 18: 3158, 17: 3006, 20: 2950, 24: 2468, 22: 2280, 19: 2210, 21: 1782, 23: 1446, 25: 1432, 26: 1326, 28: 1236, 30: 1224, 27: 1076, 32: 986, 29: 790, 31: 786, 36: 732, 38: 696, 34: 678, 33: 642, 35: 620, 40: 604, 42: 500, 39: 452, 37: 400, 44: 310, 41: 306, 43: 298, 45: 272, 1: 260, 54: 256, 48: 236, 46: 226, 49: 218, 47: 212, 57: 212, 51: 206, 50: 206, 52: 192, 56: 190, 53: 174, 0: 164, 55: 160, 60: 142, 58: 126, 67: 116, 59: 110, 74: 104, 63: 98, 68: 98, 62: 92, 69: 90, 64: 90, 71: 80, 72: 76, 61: 76, 65: 72, 70: 72, 66: 58, 73: 56, 75: 50, 77: 46, 90: 44, 95: 40, 79: 36, 85: 36, 93: 36, 81: 36, 88: 36, 78: 34, 80: 32, 259: 28, 76: 28, 96: 28, 84: 28, 89: 28, 92: 24, 97: 24, 113: 24, 91: 20, 83: 20, 104: 20, 99: 20, 94: 20, 86: 20, 110: 20, 117: 16, 82: 16, 131: 16, 128: 16, 87: 16, 98: 16, 133: 14, 126: 14, 122: 14, 137: 14, 142: 12, 155: 12, 112: 12, 123: 12, 136: 12, 125: 12, 134: 12, 130: 10, 129: 10, 135: 10, 124: 10, 146: 8, 114: 8, 111: 8, 119: 8, 140: 8, 101: 8, 107: 8, 153: 6, 106: 6, 121: 4, 138: 4, 188: 4, 139: 4, 120: 4, 187: 4, 186: 4, 102: 4, 145: 4, 143: 4, 116: 4, 175: 4, 108: 4, 192: 4, 184: 4, 152: 4, 115: 4, 105: 2, 154: 2, 189: 2, 518: 1})
% Total number of uniquely-solvable fixpoints: 260
n = 7;
num_fixpoints = 260;
fixpoints = 
[|BLACK, BLACK, WHITE, BLACK, BLACK, WHITE, BLACK, UNKNOWN, WHITE, UNKNOWN, UNKNOWN, UNKNOWN, WHITE, UNKNOWN,
 |WHITE, WHITE, BLACK, WHITE, WHITE, BLACK, UNKNOWN, UNKNOWN, UNKNOWN, BLACK, UNKNOWN, UNKNOWN, WHITE, UNKNOWN,
 |BLACK, BLACK, WHITE, BLACK, BLACK, WHITE, BLACK, UNKNOWN, UNKNOWN, WHITE, UNKNOWN, UNKNOWN, WHITE, UNKNOWN,
 |WHITE, WHITE, BLACK, WHITE, WHITE, BLACK, WHITE, UNKNOWN, BLACK, UNKNOWN, UNKNOWN, BLACK, UNKNOWN, UNKNOWN,
 |WHITE, WHITE, BLACK, WHITE, WHITE, BLACK, WHITE, UNKNOWN, UNKNOWN, UNKNOWN, UNKNOWN, BLACK, UNKNOWN, UNKNOWN,
 |WHITE, WHITE, BLACK, WHITE, WHITE, BLACK, WHITE, BLACK, UNKNOWN, UNKNOWN, UNKNOWN, BLACK, UNKNOWN, UNKNOWN,
 |WHITE, WHITE, BLACK, WHITE, BLACK, WHITE, WHITE, BLACK, UNKNOWN, UNKNOWN, UNKNOWN, BLACK, UNKNOWN, UNKNOWN,
 |WHITE, BLACK, WHITE, WHITE, BLACK, WHITE, WHITE, BLACK, UNKNOWN, UNKNOWN, UNKNOWN, BLACK, UNKNOWN, UNKNOWN,
 |BLACK, BLACK, WHITE, BLACK, BLACK, WHITE, BLACK, UNKNOWN, WHITE, UNKNOWN, UNKNOWN, WHITE, UNKNOWN, UNKNOWN,
 |WHITE, WHITE, BLACK, WHITE, WHITE, BLACK, WHITE, UNKNOWN, UNKNOWN, BLACK, UNKNOWN, UNKNOWN, UNKNOWN, UNKNOWN,
 |BLACK, BLACK, WHITE, BLACK, BLACK, WHITE, BLACK, UNKNOWN, UNKNOWN, WHITE, UNKNOWN, UNKNOWN, UNKNOWN, UNKNOWN,
 |BLACK, BLACK, WHITE, BLACK, BLACK, WHITE, UNKNOWN, UNKNOWN, UNKNOWN, WHITE, UNKNOWN, UNKNOWN, BLACK, UNKNOWN,
 |WHITE, WHITE, BLACK, WHITE, WHITE, BLACK, WHITE, UNKNOWN, UNKNOWN, BLACK, UNKNOWN, UNKNOWN, BLACK, UNKNOWN,
 |WHITE, WHITE, BLACK, WHITE, WHITE, BLACK, WHITE, UNKNOWN, BLACK, UNKNOWN, UNKNOWN, UNKNOWN, BLACK, UNKNOWN,
 |BLACK, BLACK, WHITE, BLACK, BLACK, WHITE, BLACK, UNKNOWN, UNKNOWN, UNKNOWN, UNKNOWN, WHITE, UNKNOWN, UNKNOWN,
 |BLACK, BLACK, WHITE, BLACK, BLACK, WHITE, BLACK, WHITE, UNKNOWN, UNKNOWN, UNKNOWN, WHITE, UNKNOWN, UNKNOWN,
 |BLACK, BLACK, WHITE, BLACK, WHITE, BLACK, BLACK, WHITE, UNKNOWN, UNKNOWN, UNKNOWN, WHITE, UNKNOWN, UNKNOWN,
 |BLACK, WHITE, BLACK, BLACK, WHITE, BLACK, BLACK, WHITE, UNKNOWN, UNKNOWN, UNKNOWN, WHITE, UNKNOWN, UNKNOWN,
 |BLACK, BLACK, WHITE, UNKNOWN, UNKNOWN, WHITE, UNKNOWN, UNKNOWN, UNKNOWN, WHITE, BLACK, BLACK, WHITE, BLACK,
 |BLACK, WHITE, BLACK, UNKNOWN, UNKNOWN, WHITE, UNKNOWN, UNKNOWN, UNKNOWN, WHITE, BLACK, BLACK, WHITE, BLACK,
 |BLACK, BLACK, WHITE, UNKNOWN, UNKNOWN, UNKNOWN, UNKNOWN, UNKNOWN, UNKNOWN, WHITE, BLACK, BLACK, WHITE, BLACK,
 |BLACK, BLACK, WHITE, UNKNOWN, UNKNOWN, UNKNOWN, WHITE, UNKNOWN, UNKNOWN, WHITE, BLACK, BLACK, WHITE, BLACK,
 |WHITE, WHITE, BLACK, UNKNOWN, UNKNOWN, UNKNOWN, BLACK, UNKNOWN, UNKNOWN, WHITE, BLACK, WHITE, WHITE, BLACK,
 |BLACK, BLACK, WHITE, UNKNOWN, UNKNOWN, UNKNOWN, WHITE, UNKNOWN, UNKNOWN, WHITE, BLACK, WHITE, BLACK, BLACK,
 |BLACK, BLACK, WHITE, UNKNOWN, UNKNOWN, UNKNOWN, UNKNOWN, UNKNOWN, UNKNOWN, WHITE, BLACK, WHITE, BLACK, BLACK,
 |BLACK, BLACK, WHITE, UNKNOWN, UNKNOWN, WHITE, UNKNOWN, UNKNOWN, UNKNOWN, WHITE, BLACK, WHITE, BLACK, BLACK,
 |BLACK, WHITE, BLACK, UNKNOWN, UNKNOWN, WHITE, UNKNOWN, UNKNOWN, UNKNOWN, WHITE, BLACK, WHITE, BLACK, BLACK,
 |WHITE, WHITE, BLACK, UNKNOWN, UNKNOWN, UNKNOWN, BLACK, UNKNOWN, UNKNOWN, WHITE, BLACK, WHITE, BLACK, WHITE,
 |WHITE, WHITE, BLACK, UNKNOWN, UNKNOWN, UNKNOWN, BLACK, UNKNOWN, UNKNOWN, WHITE, BLACK, BLACK, WHITE, WHITE,
 |WHITE, WHITE, BLACK, UNKNOWN, UNKNOWN, UNKNOWN, BLACK, UNKNOWN, UNKNOWN, WHITE, UNKNOWN, BLACK, WHITE, WHITE,
 |BLACK, BLACK, WHITE, BLACK, BLACK, WHITE, BLACK, UNKNOWN, UNKNOWN, WHITE, UNKNOWN, UNKNOWN, UNKNOWN, WHITE,
 |BLACK, BLACK, WHITE, BLACK, BLACK, WHITE, UNKNOWN, UNKNOWN, UNKNOWN, WHITE, UNKNOWN, UNKNOWN, BLACK, WHITE,
 |BLACK, BLACK, WHITE, BLACK, BLACK, WHITE, UNKNOWN, UNKNOWN, UNKNOWN, WHITE, UNKNOWN, UNKNOWN, UNKNOWN, BLACK,
 |BLACK, BLACK, WHITE, BLACK, BLACK, WHITE, UNKNOWN, UNKNOWN, UNKNOWN, WHITE, UNKNOWN, UNKNOWN, WHITE, BLACK,
 |BLACK, BLACK, WHITE, BLACK, UNKNOWN, WHITE, UNKNOWN, UNKNOWN, UNKNOWN, WHITE, UNKNOWN, BLACK, WHITE, BLACK,
 |BLACK, BLACK, WHITE, BLACK, UNKNOWN, UNKNOWN, WHITE, UNKNOWN, UNKNOWN, WHITE, UNKNOWN, BLACK, WHITE, BLACK,
 |BLACK, BLACK, WHITE, BLACK, UNKNOWN, UNKNOWN, WHITE, UNKNOWN, UNKNOWN, UNKNOWN, UNKNOWN, BLACK, WHITE, BLACK,
 |WHITE, WHITE, BLACK, UNKNOWN, WHITE, UNKNOWN, UNKNOWN, BLACK, UNKNOWN, UNKNOWN, UNKNOWN, BLACK, WHITE, WHITE,
 |WHITE, BLACK, WHITE, WHITE, BLACK, UNKNOWN, UNKNOWN, BLACK, UNKNOWN, UNKNOWN, UNKNOWN, BLACK, WHITE, WHITE,
 |WHITE, BLACK, WHITE, BLACK, WHITE, UNKNOWN, UNKNOWN, BLACK, UNKNOWN, UNKNOWN, UNKNOWN, BLACK, WHITE, WHITE,
 |BLACK, WHITE, WHITE, BLACK, WHITE, UNKNOWN, UNKNOWN, BLACK, UNKNOWN, UNKNOWN, UNKNOWN, BLACK, WHITE, WHITE,
 |WHITE, WHITE, BLACK, WHITE, UNKNOWN, UNKNOWN, UNKNOWN, BLACK, UNKNOWN, UNKNOWN, UNKNOWN, BLACK, WHITE, WHITE,
 |WHITE, WHITE, BLACK, WHITE, BLACK, UNKNOWN, UNKNOWN, BLACK, UNKNOWN, UNKNOWN, UNKNOWN, BLACK, WHITE, WHITE,
 |WHITE, WHITE, BLACK, BLACK, WHITE, UNKNOWN, UNKNOWN, BLACK, UNKNOWN, UNKNOWN, UNKNOWN, BLACK, WHITE, WHITE,
 |WHITE, BLACK, WHITE, WHITE, BLACK, UNKNOWN, UNKNOWN, UNKNOWN, UNKNOWN, UNKNOWN, UNKNOWN, BLACK, WHITE, WHITE,
 |WHITE, WHITE, BLACK, WHITE, UNKNOWN, UNKNOWN, UNKNOWN, UNKNOWN, UNKNOWN, UNKNOWN, UNKNOWN, BLACK, WHITE, WHITE,
 |WHITE, WHITE, BLACK, WHITE, UNKNOWN, BLACK, UNKNOWN, UNKNOWN, UNKNOWN, UNKNOWN, UNKNOWN, BLACK, WHITE, WHITE,
 |WHITE, WHITE, BLACK, WHITE, BLACK, UNKNOWN, UNKNOWN, UNKNOWN, UNKNOWN, UNKNOWN, UNKNOWN, BLACK, WHITE, WHITE,
 |BLACK, BLACK, WHITE, BLACK, BLACK, WHITE, UNKNOWN, UNKNOWN, UNKNOWN, UNKNOWN, UNKNOWN, UNKNOWN, WHITE, BLACK,
 |WHITE, WHITE, BLACK, WHITE, WHITE, BLACK, UNKNOWN, UNKNOWN, UNKNOWN, BLACK, UNKNOWN, UNKNOWN, WHITE, BLACK,
 |BLACK, BLACK, WHITE, UNKNOWN, UNKNOWN, UNKNOWN, WHITE, UNKNOWN, UNKNOWN, BLACK, WHITE, BLACK, WHITE, BLACK,
 |WHITE, WHITE, BLACK, UNKNOWN, UNKNOWN, UNKNOWN, UNKNOWN, UNKNOWN, UNKNOWN, BLACK, WHITE, BLACK, WHITE, WHITE,
 |WHITE, WHITE, BLACK, UNKNOWN, UNKNOWN, UNKNOWN, BLACK, UNKNOWN, UNKNOWN, BLACK, WHITE, BLACK, WHITE, WHITE,
 |WHITE, WHITE, BLACK, UNKNOWN, UNKNOWN, BLACK, UNKNOWN, UNKNOWN, UNKNOWN, BLACK, WHITE, BLACK, WHITE, WHITE,
 |WHITE, BLACK, WHITE, UNKNOWN, UNKNOWN, BLACK, UNKNOWN, UNKNOWN, UNKNOWN, BLACK, WHITE, BLACK, WHITE, WHITE,
 |WHITE, BLACK, WHITE, UNKNOWN, BLACK, UNKNOWN, UNKNOWN, BLACK, UNKNOWN, UNKNOWN, WHITE, BLACK, WHITE, WHITE,
 |WHITE, WHITE, BLACK, UNKNOWN, UNKNOWN, UNKNOWN, UNKNOWN, UNKNOWN, UNKNOWN, UNKNOWN, WHITE, BLACK, WHITE, WHITE,
 |BLACK, WHITE, WHITE, BLACK, UNKNOWN, UNKNOWN, UNKNOWN, BLACK, UNKNOWN, UNKNOWN, WHITE, BLACK, WHITE, WHITE,
 |WHITE, BLACK, WHITE, BLACK, UNKNOWN, UNKNOWN, UNKNOWN, BLACK, UNKNOWN, UNKNOWN, WHITE, BLACK, WHITE, WHITE,
 |WHITE, UNKNOWN, UNKNOWN, BLACK, UNKNOWN, UNKNOWN, UNKNOWN, BLACK, UNKNOWN, UNKNOWN, WHITE, BLACK, WHITE, WHITE,
 |WHITE, BLACK, WHITE, UNKNOWN, UNKNOWN, UNKNOWN, UNKNOWN, BLACK, UNKNOWN, UNKNOWN, WHITE, BLACK, WHITE, WHITE,
 |WHITE, UNKNOWN, BLACK, UNKNOWN, UNKNOWN, WHITE, UNKNOWN, BLACK, UNKNOWN, UNKNOWN, WHITE, BLACK, WHITE, WHITE,
 |WHITE, UNKNOWN, UNKNOWN, BLACK, UNKNOWN, WHITE, UNKNOWN, BLACK, UNKNOWN, UNKNOWN, WHITE, BLACK, WHITE, WHITE,
 |WHITE, WHITE, BLACK, UNKNOWN, UNKNOWN, BLACK, UNKNOWN, UNKNOWN, UNKNOWN, UNKNOWN, WHITE, BLACK, WHITE, WHITE,
 |WHITE, BLACK, WHITE, UNKNOWN, UNKNOWN, BLACK, UNKNOWN, UNKNOWN, UNKNOWN, UNKNOWN, WHITE, BLACK, WHITE, WHITE,
 |WHITE, WHITE, BLACK, UNKNOWN, UNKNOWN, UNKNOWN, BLACK, UNKNOWN, UNKNOWN, UNKNOWN, WHITE, BLACK, WHITE, WHITE,
 |BLACK, BLACK, WHITE, BLACK, UNKNOWN, UNKNOWN, WHITE, UNKNOWN, UNKNOWN, UNKNOWN, WHITE, BLACK, WHITE, BLACK,
 |WHITE, WHITE, BLACK, WHITE, UNKNOWN, UNKNOWN, BLACK, UNKNOWN, UNKNOWN, UNKNOWN, BLACK, WHITE, WHITE, BLACK,
 |BLACK, BLACK, WHITE, UNKNOWN, UNKNOWN, UNKNOWN, WHITE, UNKNOWN, UNKNOWN, UNKNOWN, BLACK, WHITE, BLACK, BLACK,
 |BLACK, BLACK, WHITE, UNKNOWN, UNKNOWN, UNKNOWN, UNKNOWN, UNKNOWN, UNKNOWN, UNKNOWN, BLACK, WHITE, BLACK, BLACK,
 |BLACK, BLACK, WHITE, UNKNOWN, UNKNOWN, WHITE, UNKNOWN, UNKNOWN, UNKNOWN, UNKNOWN, BLACK, WHITE, BLACK, BLACK,
 |BLACK, WHITE, BLACK, UNKNOWN, UNKNOWN, WHITE, UNKNOWN, UNKNOWN, UNKNOWN, UNKNOWN, BLACK, WHITE, BLACK, BLACK,
 |BLACK, WHITE, BLACK, UNKNOWN, UNKNOWN, UNKNOWN, UNKNOWN, WHITE, UNKNOWN, UNKNOWN, BLACK, WHITE, BLACK, BLACK,
 |BLACK, WHITE, BLACK, UNKNOWN, WHITE, UNKNOWN, UNKNOWN, WHITE, UNKNOWN, UNKNOWN, BLACK, WHITE, BLACK, BLACK,
 |BLACK, UNKNOWN, UNKNOWN, WHITE, UNKNOWN, UNKNOWN, UNKNOWN, WHITE, UNKNOWN, UNKNOWN, BLACK, WHITE, BLACK, BLACK,
 |WHITE, BLACK, BLACK, WHITE, UNKNOWN, UNKNOWN, UNKNOWN, WHITE, UNKNOWN, UNKNOWN, BLACK, WHITE, BLACK, BLACK,
 |BLACK, WHITE, BLACK, WHITE, UNKNOWN, UNKNOWN, UNKNOWN, WHITE, UNKNOWN, UNKNOWN, BLACK, WHITE, BLACK, BLACK,
 |BLACK, UNKNOWN, UNKNOWN, WHITE, UNKNOWN, BLACK, UNKNOWN, WHITE, UNKNOWN, UNKNOWN, BLACK, WHITE, BLACK, BLACK,
 |BLACK, UNKNOWN, WHITE, UNKNOWN, UNKNOWN, BLACK, UNKNOWN, WHITE, UNKNOWN, UNKNOWN, BLACK, WHITE, BLACK, BLACK,
 |BLACK, BLACK, WHITE, BLACK, BLACK, WHITE, UNKNOWN, UNKNOWN, UNKNOWN, UNKNOWN, UNKNOWN, UNKNOWN, UNKNOWN, BLACK,
 |BLACK, WHITE, BLACK, BLACK, WHITE, BLACK, UNKNOWN, UNKNOWN, UNKNOWN, UNKNOWN, WHITE, UNKNOWN, UNKNOWN, BLACK,
 |BLACK, BLACK, WHITE, BLACK, WHITE, BLACK, UNKNOWN, UNKNOWN, UNKNOWN, UNKNOWN, WHITE, UNKNOWN, UNKNOWN, BLACK,
 |BLACK, WHITE, BLACK, BLACK, WHITE, BLACK, WHITE, UNKNOWN, UNKNOWN, UNKNOWN, WHITE, UNKNOWN, UNKNOWN, BLACK,
 |BLACK, BLACK, WHITE, BLACK, WHITE, BLACK, WHITE, UNKNOWN, UNKNOWN, UNKNOWN, WHITE, UNKNOWN, UNKNOWN, BLACK,
 |WHITE, BLACK, BLACK, WHITE, BLACK, BLACK, WHITE, UNKNOWN, UNKNOWN, UNKNOWN, WHITE, UNKNOWN, UNKNOWN, BLACK,
 |BLACK, WHITE, BLACK, WHITE, BLACK, BLACK, WHITE, UNKNOWN, UNKNOWN, UNKNOWN, WHITE, UNKNOWN, UNKNOWN, BLACK,
 |BLACK, BLACK, WHITE, WHITE, BLACK, BLACK, WHITE, UNKNOWN, UNKNOWN, UNKNOWN, WHITE, UNKNOWN, UNKNOWN, BLACK,
 |BLACK, BLACK, WHITE, BLACK, UNKNOWN, UNKNOWN, WHITE, UNKNOWN, UNKNOWN, UNKNOWN, WHITE, UNKNOWN, UNKNOWN, BLACK,
 |BLACK, WHITE, BLACK, BLACK, WHITE, BLACK, UNKNOWN, WHITE, UNKNOWN, UNKNOWN, WHITE, UNKNOWN, UNKNOWN, BLACK,
 |BLACK, BLACK, WHITE, BLACK, WHITE, BLACK, UNKNOWN, WHITE, UNKNOWN, UNKNOWN, WHITE, UNKNOWN, UNKNOWN, BLACK,
 |BLACK, WHITE, BLACK, BLACK, WHITE, BLACK, UNKNOWN, WHITE, UNKNOWN, UNKNOWN, UNKNOWN, WHITE, UNKNOWN, BLACK,
 |BLACK, BLACK, WHITE, BLACK, WHITE, BLACK, UNKNOWN, WHITE, UNKNOWN, UNKNOWN, UNKNOWN, WHITE, UNKNOWN, BLACK,
 |BLACK, BLACK, WHITE, BLACK, BLACK, WHITE, UNKNOWN, UNKNOWN, UNKNOWN, UNKNOWN, UNKNOWN, WHITE, UNKNOWN, BLACK,
 |BLACK, BLACK, WHITE, BLACK, UNKNOWN, UNKNOWN, UNKNOWN, UNKNOWN, UNKNOWN, UNKNOWN, UNKNOWN, WHITE, BLACK, BLACK,
 |BLACK, BLACK, WHITE, BLACK, UNKNOWN, WHITE, UNKNOWN, UNKNOWN, UNKNOWN, UNKNOWN, UNKNOWN, WHITE, BLACK, BLACK,
 |BLACK, BLACK, WHITE, BLACK, WHITE, UNKNOWN, UNKNOWN, UNKNOWN, UNKNOWN, UNKNOWN, UNKNOWN, WHITE, BLACK, BLACK,
 |BLACK, WHITE, BLACK, BLACK, WHITE, UNKNOWN, UNKNOWN, UNKNOWN, UNKNOWN, UNKNOWN, UNKNOWN, WHITE, BLACK, BLACK,
 |BLACK, WHITE, BLACK, BLACK, WHITE, UNKNOWN, UNKNOWN, WHITE, UNKNOWN, UNKNOWN, UNKNOWN, WHITE, BLACK, BLACK,
 |BLACK, WHITE, BLACK, WHITE, BLACK, UNKNOWN, UNKNOWN, WHITE, UNKNOWN, UNKNOWN, UNKNOWN, WHITE, BLACK, BLACK,
 |WHITE, BLACK, BLACK, WHITE, BLACK, UNKNOWN, UNKNOWN, WHITE, UNKNOWN, UNKNOWN, UNKNOWN, WHITE, BLACK, BLACK,
 |BLACK, BLACK, WHITE, BLACK, UNKNOWN, UNKNOWN, UNKNOWN, WHITE, UNKNOWN, UNKNOWN, UNKNOWN, WHITE, BLACK, BLACK,
 |BLACK, BLACK, WHITE, UNKNOWN, BLACK, UNKNOWN, UNKNOWN, WHITE, UNKNOWN, UNKNOWN, UNKNOWN, WHITE, BLACK, BLACK,
 |BLACK, BLACK, WHITE, WHITE, BLACK, UNKNOWN, UNKNOWN, WHITE, UNKNOWN, UNKNOWN, UNKNOWN, WHITE, BLACK, BLACK,
 |BLACK, BLACK, WHITE, BLACK, WHITE, UNKNOWN, UNKNOWN, WHITE, UNKNOWN, UNKNOWN, UNKNOWN, WHITE, BLACK, BLACK,
 |BLACK, BLACK, WHITE, UNKNOWN, UNKNOWN, UNKNOWN, WHITE, UNKNOWN, UNKNOWN, BLACK, UNKNOWN, WHITE, BLACK, BLACK,
 |WHITE, WHITE, BLACK, WHITE, WHITE, BLACK, WHITE, UNKNOWN, UNKNOWN, BLACK, UNKNOWN, UNKNOWN, UNKNOWN, BLACK,
 |BLACK, BLACK, WHITE, UNKNOWN, UNKNOWN, UNKNOWN, WHITE, UNKNOWN, UNKNOWN, BLACK, WHITE, WHITE, BLACK, BLACK,
 |WHITE, WHITE, BLACK, UNKNOWN, UNKNOWN, UNKNOWN, BLACK, UNKNOWN, UNKNOWN, BLACK, WHITE, WHITE, BLACK, WHITE,
 |WHITE, WHITE, BLACK, UNKNOWN, UNKNOWN, UNKNOWN, UNKNOWN, UNKNOWN, UNKNOWN, BLACK, WHITE, WHITE, BLACK, WHITE,
 |WHITE, BLACK, WHITE, UNKNOWN, UNKNOWN, BLACK, UNKNOWN, UNKNOWN, UNKNOWN, BLACK, WHITE, WHITE, BLACK, WHITE,
 |WHITE, WHITE, BLACK, UNKNOWN, UNKNOWN, BLACK, UNKNOWN, UNKNOWN, UNKNOWN, BLACK, WHITE, WHITE, BLACK, WHITE,
 |BLACK, BLACK, WHITE, UNKNOWN, UNKNOWN, UNKNOWN, WHITE, UNKNOWN, UNKNOWN, BLACK, WHITE, BLACK, BLACK, WHITE,
 |BLACK, BLACK, WHITE, BLACK, UNKNOWN, UNKNOWN, WHITE, UNKNOWN, UNKNOWN, UNKNOWN, WHITE, BLACK, BLACK, WHITE,
 |WHITE, WHITE, BLACK, WHITE, WHITE, BLACK, UNKNOWN, UNKNOWN, UNKNOWN, UNKNOWN, UNKNOWN, UNKNOWN, BLACK, WHITE,
 |WHITE, WHITE, BLACK, WHITE, UNKNOWN, UNKNOWN, BLACK, UNKNOWN, UNKNOWN, UNKNOWN, UNKNOWN, WHITE, BLACK, WHITE,
 |WHITE, WHITE, BLACK, WHITE, UNKNOWN, UNKNOWN, BLACK, UNKNOWN, UNKNOWN, UNKNOWN, BLACK, WHITE, BLACK, WHITE,
 |WHITE, BLACK, WHITE, WHITE, BLACK, WHITE, UNKNOWN, BLACK, UNKNOWN, UNKNOWN, BLACK, UNKNOWN, UNKNOWN, WHITE,
 |WHITE, WHITE, BLACK, WHITE, BLACK, WHITE, UNKNOWN, BLACK, UNKNOWN, UNKNOWN, BLACK, UNKNOWN, UNKNOWN, WHITE,
 |WHITE, BLACK, WHITE, WHITE, BLACK, WHITE, UNKNOWN, UNKNOWN, UNKNOWN, UNKNOWN, BLACK, UNKNOWN, UNKNOWN, WHITE,
 |WHITE, WHITE, BLACK, WHITE, BLACK, WHITE, UNKNOWN, UNKNOWN, UNKNOWN, UNKNOWN, BLACK, UNKNOWN, UNKNOWN, WHITE,
 |WHITE, WHITE, BLACK, WHITE, BLACK, WHITE, BLACK, UNKNOWN, UNKNOWN, UNKNOWN, BLACK, UNKNOWN, UNKNOWN, WHITE,
 |WHITE, WHITE, BLACK, WHITE, UNKNOWN, UNKNOWN, BLACK, UNKNOWN, UNKNOWN, UNKNOWN, BLACK, UNKNOWN, UNKNOWN, WHITE,
 |WHITE, BLACK, WHITE, WHITE, BLACK, WHITE, BLACK, UNKNOWN, UNKNOWN, UNKNOWN, BLACK, UNKNOWN, UNKNOWN, WHITE,
 |BLACK, WHITE, WHITE, BLACK, WHITE, WHITE, BLACK, UNKNOWN, UNKNOWN, UNKNOWN, BLACK, UNKNOWN, UNKNOWN, WHITE,
 |WHITE, BLACK, WHITE, BLACK, WHITE, WHITE, BLACK, UNKNOWN, UNKNOWN, UNKNOWN, BLACK, UNKNOWN, UNKNOWN, WHITE,
 |WHITE, WHITE, BLACK, BLACK, WHITE, WHITE, BLACK, UNKNOWN, UNKNOWN, UNKNOWN, BLACK, UNKNOWN, UNKNOWN, WHITE,
 |WHITE, WHITE, BLACK, WHITE, WHITE, BLACK, UNKNOWN, UNKNOWN, UNKNOWN, UNKNOWN, UNKNOWN, UNKNOWN, UNKNOWN, WHITE,
 |WHITE, WHITE, BLACK, WHITE, WHITE, BLACK, UNKNOWN, UNKNOWN, UNKNOWN, UNKNOWN, UNKNOWN, BLACK, UNKNOWN, WHITE,
 |WHITE, BLACK, WHITE, WHITE, BLACK, WHITE, UNKNOWN, BLACK, UNKNOWN, UNKNOWN, UNKNOWN, BLACK, UNKNOWN, WHITE,
 |WHITE, WHITE, BLACK, WHITE, BLACK, WHITE, UNKNOWN, BLACK, UNKNOWN, UNKNOWN, UNKNOWN, BLACK, UNKNOWN, WHITE,
 |WHITE, WHITE, BLACK, WHITE, WHITE, BLACK, UNKNOWN, UNKNOWN, UNKNOWN, BLACK, UNKNOWN, UNKNOWN, UNKNOWN, WHITE,
 |WHITE, WHITE, BLACK, WHITE, WHITE, BLACK, UNKNOWN, UNKNOWN, UNKNOWN, BLACK, UNKNOWN, UNKNOWN, BLACK, WHITE,
 |WHITE, WHITE, BLACK, WHITE, UNKNOWN, BLACK, UNKNOWN, UNKNOWN, UNKNOWN, BLACK, UNKNOWN, WHITE, BLACK, WHITE,
 |WHITE, WHITE, BLACK, WHITE, UNKNOWN, UNKNOWN, BLACK, UNKNOWN, UNKNOWN, BLACK, UNKNOWN, WHITE, BLACK, WHITE,
 |WHITE, UNKNOWN, UNKNOWN, BLACK, UNKNOWN, UNKNOWN, UNKNOWN, BLACK, WHITE, BLACK, WHITE, WHITE, BLACK, WHITE,
 |WHITE, UNKNOWN, UNKNOWN, BLACK, UNKNOWN, UNKNOWN, UNKNOWN, UNKNOWN, WHITE, BLACK, WHITE, WHITE, BLACK, WHITE,
 |WHITE, UNKNOWN, UNKNOWN, UNKNOWN, UNKNOWN, BLACK, UNKNOWN, UNKNOWN, WHITE, BLACK, WHITE, WHITE, BLACK, WHITE,
 |WHITE, BLACK, UNKNOWN, UNKNOWN, UNKNOWN, BLACK, UNKNOWN, UNKNOWN, WHITE, BLACK, WHITE, WHITE, BLACK, WHITE,
 |WHITE, UNKNOWN, BLACK, UNKNOWN, UNKNOWN, BLACK, UNKNOWN, UNKNOWN, WHITE, BLACK, WHITE, WHITE, BLACK, WHITE,
 |WHITE, UNKNOWN, UNKNOWN, BLACK, UNKNOWN, UNKNOWN, BLACK, UNKNOWN, WHITE, BLACK, WHITE, WHITE, BLACK, WHITE,
 |WHITE, UNKNOWN, BLACK, UNKNOWN, UNKNOWN, UNKNOWN, BLACK, UNKNOWN, WHITE, BLACK, WHITE, WHITE, BLACK, WHITE,
 |UNKNOWN, UNKNOWN, BLACK, UNKNOWN, UNKNOWN, UNKNOWN, BLACK, WHITE, WHITE, BLACK, WHITE, WHITE, BLACK, WHITE,
 |BLACK, UNKNOWN, UNKNOWN, WHITE, UNKNOWN, UNKNOWN, UNKNOWN, WHITE, BLACK, BLACK, WHITE, WHITE, BLACK, BLACK,
 |UNKNOWN, UNKNOWN, WHITE, UNKNOWN, UNKNOWN, WHITE, UNKNOWN, BLACK, WHITE, BLACK, BLACK, WHITE, BLACK, BLACK,
 |BLACK, UNKNOWN, WHITE, UNKNOWN, UNKNOWN, WHITE, UNKNOWN, UNKNOWN, WHITE, BLACK, BLACK, WHITE, BLACK, BLACK,
 |BLACK, WHITE, UNKNOWN, UNKNOWN, UNKNOWN, WHITE, UNKNOWN, UNKNOWN, WHITE, BLACK, BLACK, WHITE, BLACK, BLACK,
 |BLACK, UNKNOWN, UNKNOWN, UNKNOWN, UNKNOWN, WHITE, UNKNOWN, UNKNOWN, WHITE, BLACK, BLACK, WHITE, BLACK, BLACK,
 |UNKNOWN, WHITE, UNKNOWN, UNKNOWN, UNKNOWN, WHITE, UNKNOWN, BLACK, WHITE, BLACK, BLACK, WHITE, BLACK, BLACK,
 |BLACK, UNKNOWN, UNKNOWN, UNKNOWN, UNKNOWN, UNKNOWN, UNKNOWN, UNKNOWN, WHITE, BLACK, BLACK, WHITE, BLACK, BLACK,
 |BLACK, UNKNOWN, UNKNOWN, UNKNOWN, WHITE, UNKNOWN, UNKNOWN, UNKNOWN, WHITE, BLACK, BLACK, WHITE, BLACK, BLACK,
 |BLACK, WHITE, UNKNOWN, UNKNOWN, UNKNOWN, UNKNOWN, UNKNOWN, UNKNOWN, WHITE, BLACK, BLACK, WHITE, BLACK, BLACK,
 |BLACK, WHITE, UNKNOWN, UNKNOWN, WHITE, UNKNOWN, UNKNOWN, UNKNOWN, WHITE, BLACK, BLACK, WHITE, BLACK, BLACK,
 |UNKNOWN, BLACK, UNKNOWN, UNKNOWN, WHITE, UNKNOWN, UNKNOWN, UNKNOWN, WHITE, BLACK, BLACK, WHITE, BLACK, BLACK,
 |WHITE, BLACK, UNKNOWN, UNKNOWN, WHITE, UNKNOWN, UNKNOWN, UNKNOWN, WHITE, BLACK, BLACK, WHITE, BLACK, BLACK,
 |BLACK, UNKNOWN, WHITE, UNKNOWN, UNKNOWN, UNKNOWN, UNKNOWN, UNKNOWN, WHITE, BLACK, BLACK, WHITE, BLACK, BLACK,
 |WHITE, UNKNOWN, UNKNOWN, UNKNOWN, WHITE, UNKNOWN, UNKNOWN, BLACK, WHITE, BLACK, BLACK, WHITE, BLACK, BLACK,
 |UNKNOWN, WHITE, UNKNOWN, UNKNOWN, WHITE, UNKNOWN, UNKNOWN, BLACK, WHITE, BLACK, BLACK, WHITE, BLACK, BLACK,
 |UNKNOWN, UNKNOWN, UNKNOWN, UNKNOWN, WHITE, UNKNOWN, UNKNOWN, BLACK, WHITE, BLACK, BLACK, WHITE, BLACK, BLACK,
 |UNKNOWN, UNKNOWN, WHITE, UNKNOWN, UNKNOWN, UNKNOWN, UNKNOWN, BLACK, WHITE, BLACK, BLACK, WHITE, BLACK, BLACK,
 |UNKNOWN, UNKNOWN, WHITE, UNKNOWN, UNKNOWN, UNKNOWN, WHITE, BLACK, WHITE, BLACK, BLACK, WHITE, BLACK, BLACK,
 |WHITE, UNKNOWN, UNKNOWN, BLACK, UNKNOWN, UNKNOWN, UNKNOWN, BLACK, WHITE, WHITE, BLACK, WHITE, WHITE, BLACK,
 |BLACK, UNKNOWN, UNKNOWN, WHITE, UNKNOWN, BLACK, UNKNOWN, UNKNOWN, WHITE, UNKNOWN, BLACK, WHITE, BLACK, BLACK,
 |BLACK, UNKNOWN, WHITE, UNKNOWN, UNKNOWN, BLACK, UNKNOWN, UNKNOWN, WHITE, UNKNOWN, BLACK, WHITE, BLACK, BLACK,
 |BLACK, BLACK, WHITE, UNKNOWN, UNKNOWN, UNKNOWN, UNKNOWN, UNKNOWN, WHITE, UNKNOWN, BLACK, WHITE, BLACK, BLACK,
 |BLACK, BLACK, WHITE, UNKNOWN, UNKNOWN, WHITE, UNKNOWN, UNKNOWN, WHITE, UNKNOWN, BLACK, WHITE, BLACK, BLACK,
 |BLACK, WHITE, BLACK, UNKNOWN, WHITE, UNKNOWN, UNKNOWN, UNKNOWN, WHITE, UNKNOWN, BLACK, WHITE, BLACK, BLACK,
 |BLACK, WHITE, BLACK, UNKNOWN, UNKNOWN, WHITE, UNKNOWN, UNKNOWN, WHITE, UNKNOWN, BLACK, WHITE, BLACK, BLACK,
 |UNKNOWN, UNKNOWN, WHITE, UNKNOWN, UNKNOWN, UNKNOWN, WHITE, BLACK, BLACK, WHITE, BLACK, WHITE, BLACK, BLACK,
 |BLACK, UNKNOWN, UNKNOWN, WHITE, UNKNOWN, UNKNOWN, WHITE, UNKNOWN, BLACK, WHITE, BLACK, WHITE, BLACK, BLACK,
 |BLACK, UNKNOWN, WHITE, UNKNOWN, UNKNOWN, UNKNOWN, WHITE, UNKNOWN, BLACK, WHITE, BLACK, WHITE, BLACK, BLACK,
 |BLACK, UNKNOWN, UNKNOWN, WHITE, UNKNOWN, UNKNOWN, UNKNOWN, UNKNOWN, BLACK, WHITE, BLACK, WHITE, BLACK, BLACK,
 |BLACK, WHITE, UNKNOWN, UNKNOWN, UNKNOWN, WHITE, UNKNOWN, UNKNOWN, BLACK, WHITE, BLACK, WHITE, BLACK, BLACK,
 |BLACK, UNKNOWN, UNKNOWN, UNKNOWN, UNKNOWN, WHITE, UNKNOWN, UNKNOWN, BLACK, WHITE, BLACK, WHITE, BLACK, BLACK,
 |BLACK, UNKNOWN, WHITE, UNKNOWN, UNKNOWN, WHITE, UNKNOWN, UNKNOWN, BLACK, WHITE, BLACK, WHITE, BLACK, BLACK,
 |BLACK, UNKNOWN, UNKNOWN, WHITE, UNKNOWN, UNKNOWN, UNKNOWN, WHITE, BLACK, WHITE, BLACK, WHITE, BLACK, BLACK,
 |WHITE, UNKNOWN, UNKNOWN, BLACK, UNKNOWN, UNKNOWN, UNKNOWN, BLACK, WHITE, WHITE, BLACK, WHITE, BLACK, WHITE,
 |BLACK, WHITE, BLACK, BLACK, WHITE, UNKNOWN, UNKNOWN, UNKNOWN, WHITE, UNKNOWN, UNKNOWN, WHITE, BLACK, BLACK,
 |BLACK, BLACK, WHITE, BLACK, WHITE, UNKNOWN, UNKNOWN, UNKNOWN, WHITE, UNKNOWN, UNKNOWN, WHITE, BLACK, BLACK,
 |BLACK, BLACK, WHITE, BLACK, UNKNOWN, UNKNOWN, UNKNOWN, UNKNOWN, WHITE, UNKNOWN, UNKNOWN, WHITE, BLACK, BLACK,
 |BLACK, BLACK, WHITE, BLACK, UNKNOWN, WHITE, UNKNOWN, UNKNOWN, WHITE, UNKNOWN, UNKNOWN, WHITE, BLACK, BLACK,
 |BLACK, WHITE, BLACK, BLACK, WHITE, BLACK, UNKNOWN, UNKNOWN, WHITE, UNKNOWN, UNKNOWN, WHITE, UNKNOWN, BLACK,
 |BLACK, BLACK, WHITE, BLACK, WHITE, BLACK, UNKNOWN, UNKNOWN, WHITE, UNKNOWN, UNKNOWN, WHITE, UNKNOWN, BLACK,
 |BLACK, BLACK, WHITE, BLACK, BLACK, WHITE, UNKNOWN, UNKNOWN, WHITE, UNKNOWN, UNKNOWN, WHITE, UNKNOWN, BLACK,
 |BLACK, BLACK, WHITE, BLACK, UNKNOWN, UNKNOWN, WHITE, UNKNOWN, BLACK, UNKNOWN, UNKNOWN, WHITE, UNKNOWN, BLACK,
 |BLACK, BLACK, WHITE, BLACK, UNKNOWN, WHITE, UNKNOWN, UNKNOWN, BLACK, UNKNOWN, UNKNOWN, WHITE, UNKNOWN, BLACK,
 |WHITE, WHITE, BLACK, WHITE, UNKNOWN, BLACK, UNKNOWN, UNKNOWN, BLACK, UNKNOWN, UNKNOWN, WHITE, BLACK, WHITE,
 |WHITE, WHITE, BLACK, WHITE, UNKNOWN, UNKNOWN, UNKNOWN, UNKNOWN, BLACK, UNKNOWN, UNKNOWN, WHITE, BLACK, WHITE,
 |WHITE, WHITE, BLACK, WHITE, BLACK, UNKNOWN, UNKNOWN, UNKNOWN, BLACK, UNKNOWN, UNKNOWN, WHITE, BLACK, WHITE,
 |WHITE, BLACK, WHITE, WHITE, BLACK, UNKNOWN, UNKNOWN, UNKNOWN, BLACK, UNKNOWN, UNKNOWN, WHITE, BLACK, WHITE,
 |WHITE, BLACK, WHITE, WHITE, BLACK, WHITE, UNKNOWN, UNKNOWN, BLACK, UNKNOWN, UNKNOWN, UNKNOWN, BLACK, WHITE,
 |WHITE, WHITE, BLACK, WHITE, BLACK, WHITE, UNKNOWN, UNKNOWN, BLACK, UNKNOWN, UNKNOWN, UNKNOWN, BLACK, WHITE,
 |WHITE, WHITE, BLACK, WHITE, WHITE, BLACK, UNKNOWN, UNKNOWN, BLACK, UNKNOWN, UNKNOWN, UNKNOWN, BLACK, WHITE,
 |WHITE, BLACK, WHITE, WHITE, BLACK, WHITE, UNKNOWN, UNKNOWN, BLACK, UNKNOWN, UNKNOWN, UNKNOWN, UNKNOWN, WHITE,
 |WHITE, WHITE, BLACK, WHITE, BLACK, WHITE, UNKNOWN, UNKNOWN, BLACK, UNKNOWN, UNKNOWN, UNKNOWN, UNKNOWN, WHITE,
 |WHITE, WHITE, BLACK, WHITE, WHITE, BLACK, UNKNOWN, UNKNOWN, BLACK, UNKNOWN, UNKNOWN, UNKNOWN, UNKNOWN, WHITE,
 |WHITE, BLACK, WHITE, WHITE, BLACK, UNKNOWN, UNKNOWN, UNKNOWN, BLACK, UNKNOWN, UNKNOWN, BLACK, WHITE, WHITE,
 |WHITE, WHITE, BLACK, WHITE, BLACK, UNKNOWN, UNKNOWN, UNKNOWN, BLACK, UNKNOWN, UNKNOWN, BLACK, WHITE, WHITE,
 |WHITE, WHITE, BLACK, WHITE, UNKNOWN, UNKNOWN, UNKNOWN, UNKNOWN, BLACK, UNKNOWN, UNKNOWN, BLACK, WHITE, WHITE,
 |WHITE, WHITE, BLACK, WHITE, UNKNOWN, BLACK, UNKNOWN, UNKNOWN, BLACK, UNKNOWN, UNKNOWN, BLACK, WHITE, WHITE,
 |WHITE, WHITE, BLACK, WHITE, WHITE, BLACK, UNKNOWN, UNKNOWN, BLACK, UNKNOWN, UNKNOWN, BLACK, UNKNOWN, WHITE,
 |WHITE, BLACK, WHITE, WHITE, BLACK, WHITE, UNKNOWN, UNKNOWN, BLACK, UNKNOWN, UNKNOWN, BLACK, UNKNOWN, WHITE,
 |WHITE, WHITE, BLACK, WHITE, BLACK, WHITE, UNKNOWN, UNKNOWN, BLACK, UNKNOWN, UNKNOWN, BLACK, UNKNOWN, WHITE,
 |WHITE, WHITE, BLACK, WHITE, UNKNOWN, UNKNOWN, BLACK, UNKNOWN, WHITE, UNKNOWN, UNKNOWN, BLACK, UNKNOWN, WHITE,
 |WHITE, WHITE, BLACK, WHITE, UNKNOWN, BLACK, UNKNOWN, UNKNOWN, WHITE, UNKNOWN, UNKNOWN, BLACK, UNKNOWN, WHITE,
 |BLACK, BLACK, WHITE, BLACK, BLACK, WHITE, UNKNOWN, UNKNOWN, WHITE, UNKNOWN, UNKNOWN, UNKNOWN, WHITE, BLACK,
 |BLACK, WHITE, BLACK, BLACK, WHITE, BLACK, UNKNOWN, UNKNOWN, WHITE, UNKNOWN, UNKNOWN, UNKNOWN, WHITE, BLACK,
 |BLACK, BLACK, WHITE, BLACK, WHITE, BLACK, UNKNOWN, UNKNOWN, WHITE, UNKNOWN, UNKNOWN, UNKNOWN, WHITE, BLACK,
 |BLACK, BLACK, WHITE, BLACK, BLACK, WHITE, UNKNOWN, UNKNOWN, WHITE, UNKNOWN, UNKNOWN, UNKNOWN, UNKNOWN, BLACK,
 |BLACK, WHITE, BLACK, BLACK, WHITE, BLACK, UNKNOWN, UNKNOWN, WHITE, UNKNOWN, UNKNOWN, UNKNOWN, UNKNOWN, BLACK,
 |BLACK, BLACK, WHITE, BLACK, WHITE, BLACK, UNKNOWN, UNKNOWN, WHITE, UNKNOWN, UNKNOWN, UNKNOWN, UNKNOWN, BLACK,
 |BLACK, WHITE, BLACK, BLACK, WHITE, UNKNOWN, UNKNOWN, UNKNOWN, WHITE, UNKNOWN, UNKNOWN, BLACK, WHITE, BLACK,
 |BLACK, BLACK, WHITE, BLACK, WHITE, UNKNOWN, UNKNOWN, UNKNOWN, WHITE, UNKNOWN, UNKNOWN, BLACK, WHITE, BLACK,
 |BLACK, BLACK, WHITE, BLACK, UNKNOWN, UNKNOWN, UNKNOWN, UNKNOWN, WHITE, UNKNOWN, UNKNOWN, BLACK, WHITE, BLACK,
 |BLACK, BLACK, WHITE, BLACK, UNKNOWN, WHITE, UNKNOWN, UNKNOWN, WHITE, UNKNOWN, UNKNOWN, BLACK, WHITE, BLACK,
 |BLACK, BLACK, WHITE, BLACK, UNKNOWN, UNKNOWN, WHITE, UNKNOWN, BLACK, UNKNOWN, WHITE, UNKNOWN, UNKNOWN, BLACK,
 |BLACK, BLACK, WHITE, BLACK, UNKNOWN, WHITE, UNKNOWN, UNKNOWN, BLACK, UNKNOWN, WHITE, UNKNOWN, UNKNOWN, BLACK,
 |WHITE, BLACK, WHITE, UNKNOWN, BLACK, UNKNOWN, UNKNOWN, UNKNOWN, BLACK, UNKNOWN, WHITE, BLACK, WHITE, WHITE,
 |WHITE, WHITE, BLACK, UNKNOWN, UNKNOWN, UNKNOWN, UNKNOWN, UNKNOWN, BLACK, UNKNOWN, WHITE, BLACK, WHITE, WHITE,
 |WHITE, BLACK, WHITE, UNKNOWN, UNKNOWN, BLACK, UNKNOWN, UNKNOWN, BLACK, UNKNOWN, WHITE, BLACK, WHITE, WHITE,
 |WHITE, UNKNOWN, UNKNOWN, BLACK, UNKNOWN, WHITE, UNKNOWN, UNKNOWN, BLACK, UNKNOWN, WHITE, BLACK, WHITE, WHITE,
 |WHITE, UNKNOWN, BLACK, UNKNOWN, UNKNOWN, WHITE, UNKNOWN, UNKNOWN, BLACK, UNKNOWN, WHITE, BLACK, WHITE, WHITE,
 |WHITE, WHITE, BLACK, UNKNOWN, UNKNOWN, BLACK, UNKNOWN, UNKNOWN, BLACK, UNKNOWN, WHITE, BLACK, WHITE, WHITE,
 |WHITE, WHITE, BLACK, WHITE, UNKNOWN, BLACK, UNKNOWN, UNKNOWN, WHITE, UNKNOWN, BLACK, UNKNOWN, UNKNOWN, WHITE,
 |WHITE, WHITE, BLACK, WHITE, UNKNOWN, UNKNOWN, BLACK, UNKNOWN, WHITE, UNKNOWN, BLACK, UNKNOWN, UNKNOWN, WHITE,
 |WHITE, UNKNOWN, UNKNOWN, BLACK, UNKNOWN, UNKNOWN, BLACK, UNKNOWN, WHITE, BLACK, WHITE, BLACK, WHITE, WHITE,
 |WHITE, UNKNOWN, UNKNOWN, UNKNOWN, UNKNOWN, BLACK, UNKNOWN, UNKNOWN, WHITE, BLACK, WHITE, BLACK, WHITE, WHITE,
 |WHITE, BLACK, UNKNOWN, UNKNOWN, UNKNOWN, BLACK, UNKNOWN, UNKNOWN, WHITE, BLACK, WHITE, BLACK, WHITE, WHITE,
 |WHITE, UNKNOWN, UNKNOWN, BLACK, UNKNOWN, UNKNOWN, UNKNOWN, BLACK, WHITE, BLACK, WHITE, BLACK, WHITE, WHITE,
 |WHITE, UNKNOWN, UNKNOWN, BLACK, UNKNOWN, UNKNOWN, UNKNOWN, UNKNOWN, WHITE, BLACK, WHITE, BLACK, WHITE, WHITE,
 |WHITE, UNKNOWN, BLACK, UNKNOWN, UNKNOWN, UNKNOWN, BLACK, UNKNOWN, WHITE, BLACK, WHITE, BLACK, WHITE, WHITE,
 |UNKNOWN, UNKNOWN, BLACK, UNKNOWN, UNKNOWN, UNKNOWN, BLACK, WHITE, WHITE, BLACK, WHITE, BLACK, WHITE, WHITE,
 |WHITE, UNKNOWN, BLACK, UNKNOWN, UNKNOWN, BLACK, UNKNOWN, UNKNOWN, WHITE, BLACK, WHITE, BLACK, WHITE, WHITE,
 |BLACK, UNKNOWN, UNKNOWN, WHITE, UNKNOWN, UNKNOWN, UNKNOWN, WHITE, BLACK, BLACK, WHITE, BLACK, WHITE, BLACK,
 |BLACK, UNKNOWN, UNKNOWN, WHITE, UNKNOWN, UNKNOWN, UNKNOWN, WHITE, BLACK, BLACK, WHITE, BLACK, BLACK, WHITE,
 |UNKNOWN, UNKNOWN, UNKNOWN, UNKNOWN, BLACK, UNKNOWN, UNKNOWN, WHITE, BLACK, WHITE, WHITE, BLACK, WHITE, WHITE,
 |UNKNOWN, UNKNOWN, BLACK, UNKNOWN, UNKNOWN, BLACK, UNKNOWN, WHITE, BLACK, WHITE, WHITE, BLACK, WHITE, WHITE,
 |UNKNOWN, UNKNOWN, BLACK, UNKNOWN, UNKNOWN, UNKNOWN, UNKNOWN, WHITE, BLACK, WHITE, WHITE, BLACK, WHITE, WHITE,
 |UNKNOWN, BLACK, UNKNOWN, UNKNOWN, UNKNOWN, BLACK, UNKNOWN, WHITE, BLACK, WHITE, WHITE, BLACK, WHITE, WHITE,
 |UNKNOWN, BLACK, UNKNOWN, UNKNOWN, BLACK, UNKNOWN, UNKNOWN, WHITE, BLACK, WHITE, WHITE, BLACK, WHITE, WHITE,
 |UNKNOWN, UNKNOWN, BLACK, UNKNOWN, UNKNOWN, UNKNOWN, BLACK, WHITE, BLACK, WHITE, WHITE, BLACK, WHITE, WHITE,
 |BLACK, UNKNOWN, UNKNOWN, UNKNOWN, BLACK, UNKNOWN, UNKNOWN, WHITE, BLACK, WHITE, WHITE, BLACK, WHITE, WHITE,
 |BLACK, WHITE, UNKNOWN, UNKNOWN, BLACK, UNKNOWN, UNKNOWN, UNKNOWN, BLACK, WHITE, WHITE, BLACK, WHITE, WHITE,
 |UNKNOWN, WHITE, UNKNOWN, UNKNOWN, BLACK, UNKNOWN, UNKNOWN, UNKNOWN, BLACK, WHITE, WHITE, BLACK, WHITE, WHITE,
 |WHITE, UNKNOWN, UNKNOWN, UNKNOWN, UNKNOWN, UNKNOWN, UNKNOWN, UNKNOWN, BLACK, WHITE, WHITE, BLACK, WHITE, WHITE,
 |WHITE, BLACK, UNKNOWN, UNKNOWN, UNKNOWN, UNKNOWN, UNKNOWN, UNKNOWN, BLACK, WHITE, WHITE, BLACK, WHITE, WHITE,
 |WHITE, UNKNOWN, UNKNOWN, UNKNOWN, BLACK, UNKNOWN, UNKNOWN, UNKNOWN, BLACK, WHITE, WHITE, BLACK, WHITE, WHITE,
 |WHITE, BLACK, UNKNOWN, UNKNOWN, BLACK, UNKNOWN, UNKNOWN, UNKNOWN, BLACK, WHITE, WHITE, BLACK, WHITE, WHITE,
 |WHITE, UNKNOWN, BLACK, UNKNOWN, UNKNOWN, UNKNOWN, UNKNOWN, UNKNOWN, BLACK, WHITE, WHITE, BLACK, WHITE, WHITE,
 |WHITE, UNKNOWN, UNKNOWN, UNKNOWN, UNKNOWN, BLACK, UNKNOWN, UNKNOWN, BLACK, WHITE, WHITE, BLACK, WHITE, WHITE,
 |WHITE, BLACK, UNKNOWN, UNKNOWN, UNKNOWN, BLACK, UNKNOWN, UNKNOWN, BLACK, WHITE, WHITE, BLACK, WHITE, WHITE,
 |WHITE, UNKNOWN, BLACK, UNKNOWN, UNKNOWN, BLACK, UNKNOWN, UNKNOWN, BLACK, WHITE, WHITE, BLACK, WHITE, WHITE,
 |WHITE, UNKNOWN, UNKNOWN, BLACK, UNKNOWN, UNKNOWN, UNKNOWN, BLACK, WHITE, WHITE, BLACK, BLACK, WHITE, WHITE,
 |UNKNOWN, UNKNOWN, WHITE, UNKNOWN, UNKNOWN, UNKNOWN, WHITE, BLACK, BLACK, WHITE, BLACK, BLACK, WHITE, BLACK,
 |BLACK, UNKNOWN, UNKNOWN, WHITE, UNKNOWN, UNKNOWN, WHITE, UNKNOWN, BLACK, WHITE, BLACK, BLACK, WHITE, BLACK,
 |BLACK, UNKNOWN, WHITE, UNKNOWN, UNKNOWN, UNKNOWN, WHITE, UNKNOWN, BLACK, WHITE, BLACK, BLACK, WHITE, BLACK,
 |BLACK, UNKNOWN, UNKNOWN, WHITE, UNKNOWN, UNKNOWN, UNKNOWN, WHITE, BLACK, WHITE, BLACK, BLACK, WHITE, BLACK,
 |BLACK, UNKNOWN, UNKNOWN, WHITE, UNKNOWN, UNKNOWN, UNKNOWN, UNKNOWN, BLACK, WHITE, BLACK, BLACK, WHITE, BLACK,
 |BLACK, WHITE, UNKNOWN, UNKNOWN, UNKNOWN, WHITE, UNKNOWN, UNKNOWN, BLACK, WHITE, BLACK, BLACK, WHITE, BLACK,
 |BLACK, UNKNOWN, UNKNOWN, UNKNOWN, UNKNOWN, WHITE, UNKNOWN, UNKNOWN, BLACK, WHITE, BLACK, BLACK, WHITE, BLACK,
 |BLACK, UNKNOWN, WHITE, UNKNOWN, UNKNOWN, WHITE, UNKNOWN, UNKNOWN, BLACK, WHITE, BLACK, BLACK, WHITE, BLACK|];
